1 -434 -441 0
-434 -439 -441 0
-18 434 -441 0
17 18 -441 0
434 -441 0
d -18 434 -441 0
-434 -441 0
d 1 -434 -441 0
-441 0
17 -18 0
-18 0
17 0
-1 0
-417 0
425 0
34 0
2 0
433 0
401 0
-25 0
-434 0
-42 0
-402 0
-57 0
-361 0
-385 0
-393 0
-74 0
-33 0
41 0
9 0
10 0
418 0
58 0
26 0
386 0
73 0
377 0
345 0
13 0
369 0
14 0
409 0
90 0
49 0
15 0
-81 0
-249 0
-273 0
0
